1 1 -2 0
1 3 -4 0
1 5 -6 0
1 -5 -7 0
1 8 9 0
1 -7 10 0
1 -11 12 0
1 -13 12 0
1 -14 15 0
1 -16 15 0
1 -17 -11 0
1 18 14 0
1 -18 19 0
1 -18 -20 0
1 -21 -22 0
1 22 -19 0
1 23 -24 0
1 4 -25 0
1 -25 5 0
1 -26 27 0
1 -26 4 0
1 -28 29 0
1 -28 -30 0
1 31 -25 0
1 32 33 0
1 10 34 0
1 10 -35 0
1 -36 37 0
1 -36 -38 0
1 -36 -39 0
1 36 7 0
1 34 40 0
1 -34 -41 0
1 38 -42 0
1 38 43 0
1 -38 -32 0
1 33 -30 0
1 -41 14 0
1 -41 -7 0
1 -44 13 0
1 40 45 0
1 -46 47 0
1 46 42 0
1 -45 39 0
1 48 -49 0
1 50 -45 0
1 -50 -13 0
1 50 -39 0
1 -51 50 0
1 51 52 0
1 51 -21 0
1 53 -54 0
1 55 56 0
1 55 22 0
1 55 -57 0
1 55 58 0
1 -57 -59 0
1 -57 60 0
1 57 20 0
1 61 50 0
1 62 -7 0
1 -62 -63 0
1 62 55 0
1 -60 -64 0
1 65 66 0
1 66 67 0
1 68 69 0
1 68 -70 0
1 -56 71 0
1 -72 -73 0
1 -72 -74 0
1 70 75 0
1 -70 67 0
1 76 77 0
1 78 -68 0
1 79 -80 0
1 75 18 0
1 -75 66 0
1 -67 -66 0
1 -81 -82 0
1 -81 83 0
1 -84 85 0
1 -84 86 0
1 -87 82 0
1 -87 -88 0
1 -87 86 0
1 -89 -85 0
1 -85 35 0
1 90 -91 0
1 -82 92 0
1 -82 -87 0
1 82 -93 0
1 -94 -93 0
1 35 28 0
1 35 -95 0
1 -35 -89 0
1 -96 89 0
1 -96 -97 0
1 -86 -42 0
1 -86 94 0
1 -98 -91 0
1 -88 98 0
1 88 -99 0
1 30 100 0
1 -30 -26 0
1 101 -38 0
1 102 -42 0
1 -102 103 0
1 100 -42 0
1 100 -102 0
1 100 -35 0
1 -103 -42 0
1 -103 -54 0
1 -103 104 0
1 105 106 0
1 -95 -107 0
1 95 30 0
1 -104 34 0
1 -108 -109 0
1 -54 -103 0
1 54 -110 0
1 -58 -100 0
1 -58 -29 0
1 -111 112 0
1 -111 54 0
1 -111 -113 0
1 -109 113 0
1 114 -58 0
1 115 -116 0
1 113 39 0
1 113 -48 0
1 113 20 0
1 117 111 0
1 117 61 0
1 -118 73 0
1 -118 113 0
1 -43 -119 0
1 -43 -117 0
1 43 120 0
1 -120 -121 0
1 59 72 0
1 59 -112 0
1 74 122 0
1 -123 -116 0
1 -73 124 0
1 -73 -125 0
1 -126 -123 0
1 126 -127 0
1 -122 128 0
1 -122 -129 0
1 122 121 0
1 -130 -131 0
1 69 72 0
1 69 132 0
1 -69 -125 0
1 69 71 0
1 133 -134 0
1 133 135 0
1 -133 132 0
1 133 -124 0
1 133 67 0
1 -136 -133 0
1 136 137 0
1 -125 57 0
1 -134 138 0
1 134 -139 0
1 -124 -128 0
1 124 -140 0
1 124 136 0
1 141 142 0
1 -141 -143 0
1 80 -139 0
1 -80 144 0
1 139 -145 0
1 -146 -125 0
1 147 145 0
1 -144 -80 0
1 -144 -148 0
1 -144 -149 0
1 150 -151 0
1 -150 152 0
1 -151 150 0
1 -151 152 0
1 153 154 0
1 153 149 0
1 155 -156 0
1 -157 -158 0
1 156 -157 0
1 -93 90 0
1 92 -159 0
1 -92 -160 0
1 92 -161 0
1 162 82 0
1 163 -164 0
1 -158 163 0
1 -158 -92 0
1 -158 -161 0
1 -161 163 0
1 -165 166 0
1 -167 -92 0
1 91 -89 0
1 91 -168 0
1 169 -161 0
1 -99 -161 0
1 -170 -42 0
1 168 170 0
1 171 -169 0
1 171 110 0
1 -171 -172 0
1 171 99 0
1 -173 174 0
1 175 176 0
1 -175 162 0
1 172 -171 0
1 -172 -177 0
1 107 -108 0
1 110 178 0
1 -110 95 0
1 106 -179 0
1 106 -180 0
1 179 170 0
1 179 181 0
1 181 -85 0
1 181 -182 0
1 183 -184 0
1 183 -185 0
1 186 -114 0
1 187 -188 0
1 187 -181 0
1 -187 -189 0
1 187 190 0
1 187 -191 0
1 185 112 0
1 185 86 0
1 180 -183 0
1 -180 192 0
1 -180 193 0
1 184 -186 0
1 -112 194 0
1 194 -109 0
1 -195 191 0
1 196 197 0
1 188 -194 0
1 198 129 0
1 198 -194 0
1 -199 194 0
1 129 119 0
1 137 -198 0
1 -137 197 0
1 -137 200 0
1 -201 -131 0
1 200 202 0
1 203 -121 0
1 -197 204 0
1 -197 -205 0
1 -197 114 0
1 128 206 0
1 131 132 0
1 131 -207 0
1 -143 -201 0
1 143 -119 0
1 202 200 0
1 208 202 0
1 209 131 0
1 -209 210 0
1 -206 211 0
1 -210 -212 0
1 140 141 0
1 -148 -208 0
1 -213 -208 0
1 -214 -215 0
1 214 216 0
1 214 140 0
1 -214 -127 0
1 127 213 0
1 -127 -217 0
1 -218 -215 0
1 218 210 0
1 -219 220 0
1 -219 145 0
1 221 153 0
1 -222 223 0
1 -224 -225 0
1 138 -222 0
1 -142 216 0
1 -142 219 0
1 -225 -226 0
1 227 138 0
1 -227 228 0
1 -223 -229 0
1 -226 147 0
1 -226 -230 0
1 231 221 0
1 232 -225 0
1 -232 -233 0
1 234 -235 0
1 236 -226 0
1 237 154 0
1 154 229 0
1 238 237 0
1 177 239 0
1 -174 -240 0
1 -174 241 0
1 -174 -161 0
1 242 175 0
1 -242 -243 0
1 -242 -239 0
1 -243 -160 0
1 -243 -176 0
1 243 242 0
1 -243 177 0
1 -239 -244 0
1 -239 176 0
1 240 177 0
1 176 245 0
1 -176 -171 0
1 176 -243 0
1 176 183 0
1 -246 -175 0
1 -189 245 0
1 -189 -247 0
1 189 239 0
1 248 178 0
1 -248 -249 0
1 250 -251 0
1 -250 -252 0
1 -250 -165 0
1 -250 253 0
1 -250 246 0
1 -252 248 0
1 -254 247 0
1 -254 181 0
1 -254 -180 0
1 -193 255 0
1 -256 -257 0
1 256 249 0
1 -256 192 0
1 -192 249 0
1 -192 -258 0
1 259 260 0
1 -259 -261 0
1 259 -262 0
1 -259 -189 0
1 259 263 0
1 259 -192 0
1 264 260 0
1 -264 256 0
1 264 254 0
1 -264 263 0
1 -247 -260 0
1 -247 251 0
1 262 184 0
1 -262 265 0
1 -262 -191 0
1 262 199 0
1 266 259 0
1 261 -267 0
1 268 -259 0
1 268 -269 0
1 -267 -270 0
1 182 -256 0
1 -257 -271 0
1 -257 260 0
1 272 273 0
1 205 274 0
1 205 -197 0
1 205 275 0
1 -275 272 0
1 275 -261 0
1 275 -276 0
1 -275 277 0
1 -278 -269 0
1 269 207 0
1 204 197 0
1 277 279 0
1 277 274 0
1 277 -280 0
1 281 -279 0
1 -281 -206 0
1 -281 275 0
1 -282 -283 0
1 -282 284 0
1 274 -211 0
1 -285 204 0
1 211 208 0
1 -211 286 0
1 211 -206 0
1 211 -276 0
1 287 -288 0
1 -287 280 0
1 -287 286 0
1 287 289 0
1 -286 -290 0
1 -286 291 0
1 292 -293 0
1 -292 277 0
1 -280 292 0
1 280 294 0
1 -215 214 0
1 215 -218 0
1 295 -215 0
1 289 -296 0
1 -289 -295 0
1 297 298 0
1 -299 -298 0
1 -300 -295 0
1 -301 -224 0
1 301 -217 0
1 301 236 0
1 -302 -217 0
1 233 231 0
1 -233 217 0
1 217 303 0
1 -217 -304 0
1 251 245 0
1 251 -249 0
1 253 305 0
1 253 306 0
1 -253 264 0
1 -307 -308 0
1 -306 -271 0
1 306 309 0
1 -305 310 0
1 305 -307 0
1 -260 257 0
1 -260 -311 0
1 260 312 0
1 263 -306 0
1 263 -264 0
1 -313 306 0
1 -313 311 0
1 -314 245 0
1 311 260 0
1 -308 -311 0
1 315 -269 0
1 316 314 0
1 317 -318 0
1 319 -288 0
1 319 317 0
1 319 -320 0
1 -321 320 0
1 -322 -316 0
1 -276 -285 0
1 323 275 0
1 -320 -324 0
1 -320 273 0
1 -320 325 0
1 -326 327 0
1 318 316 0
1 328 -316 0
1 293 285 0
1 -294 329 0
1 -330 292 0
1 -330 331 0
1 -330 294 0
1 -330 325 0
1 325 -332 0
1 333 294 0
1 -331 284 0
1 -298 -300 0
1 298 -327 0
1 298 325 0
1 -290 329 0
1 -290 -299 0
1 332 329 0
1 334 -335 0
1 283 330 0
1 -336 -330 0
1 329 -337 0
1 -338 -310 0
1 -339 340 0
1 -341 342 0
1 -343 344 0
1 -343 -345 0
1 346 -343 0
1 346 347 0
1 310 -305 0
1 -348 -349 0
1 -348 -344 0
1 -350 -346 0
1 -347 351 0
1 -347 -352 0
1 353 354 0
1 342 347 0
1 355 -314 0
1 356 347 0
1 -327 -357 0
1 -327 333 0
1 358 -351 0
1 -358 -352 0
1 -358 -326 0
1 -335 -354 0
1 -351 358 0
1 -352 322 0
1 354 -359 0
1 354 360 0
